5
992 828 775  850
745 956 931  355
483 812 937  893
836 415 692  708
635 939 810  744
10
585 407 394  41 186
469 127 313  17 255
207 37 178  101 300
165 363 626  77 179
159 212 589  232 208
287 531 516  151 251
199 116 594  145 298
761 677 151  181 262
76 623 636  266 235
578 27 607  152 278
